70 170973
1 29 17 8 57 6 50 42 59 56 15 30 46 3 55 18 26 54 40 47 63 32 5 31 28 11 39 20 65 44 64 68 22 2 48 52 37 67 34 69 61 21 70 49 23 38 33 25 9 43 66 19 45 16 35 62 41 36 53 12 27 7 60 58 13 4 10 24 51 14 
